# dummpy lammps script to test produced structures


units               real
atom_style          full
bond_style          harmonic
angle_style         harmonic
dihedral_style      harmonic
improper_style      cvff

#special_bonds lj/coul 1 1 1

kspace_style        ewald 0.01
kspace_modify       gewald 1e-50
kspace_modify       compute no
#kspace_modify       kmax/ewald 1 1 1

neighbor            5 bin
neigh_modify        delay 0 every 1 check no page 50000000 one 5000000

#pair_style          lj/cut/coul/long 100


pair_style          coul/long 10


read_data           test.data

mass * 1

pair_coeff * *

bond_coeff 1 1 1
bond_coeff 2 1 1
bond_coeff 3 1 1
bond_coeff 4 1 1
bond_coeff 5 1 1

group    g1 id 1:1
group    g2 id 2:2
group    g3 id 3:3

compute             mycompb1_1  g1 group/group g1  pair yes kspace no
compute             mycompb1_2  g1 group/group g2  pair yes kspace no
compute             mycompb1_3  g1 group/group g3  pair yes kspace no
compute             mycompb2_3  g2 group/group g3  pair yes kspace no

#thermo_style        custom step ecoul c_mycompb1_1 c_mycompb1_2 c_mycompb1_3 c_mycompb2_3
thermo_style        custom step ecoul c_mycompb1_2

fix                 1 all npt x 0 0 10000 y 0 0 10000 z 1000 1000 10000 temp 500 500 10000
dump                d0 all image 1 dump.*.jpg type type view 90 0

run                 0

unfix 1
